p cnf 43 42
-4 0
-12 0
-22 0
-23 0
-39 0
-40 0
-53 0
-54 0
-55 0
-84 0
-85 0
-86 0
-87 0
-96 0
-95 -97 0
-98 0
-99 0
-111 0
-112 0
-117 0
-150 0
-151 0
-152 0
-153 0
-184 0
-185 0
-187 0
-188 0
-189 0
-190 0
-220 0
-221 0
-224 0
-226 0
-301 0
-302 0
-323 0
-324 0
-340 0
-341 0
-344 0
-345 0
